20
2	97	77	22	91
8	85	107	11	63
8	13	61	2	0
6	51	105	78	38
8	102	110	13	29
3	26	75	88	22
3	29	87	11	63
10	68	78	91	17
9	64	20	2	30
2	101	55	11	96
8	80	48	96	59
7	62	38	4	48
8	45	59	48	19
8	73	33	98	39
4	15	58	23	79
10	121	51	47	49
8	27	99	32	48
5	36	50	86	34
9	30	0	91	34
6	33	27	71	66
